PROBLEM NAME: tiny_n7_m6
KNAPSACK DATA TYPE: uncorrelated
DIMENSION: 7
NUMBER OF ITEMS: 6
CAPACITY OF KNAPSACK: 30
MIN SPEED: 0.1
MAX SPEED: 1.0
RENTING RATIO: 2.5
EDGE_WEIGHT_TYPE: EUC_2D
NODE_COORD_SECTION
1 0 0
2 4 0
3 8 3
4 7 8
5 3 10
6 0 7
7 2 3
ITEMS SECTION
1 120 14 2
2 90 10 3
3 200 22 4
4 70 8 5
5 50 5 6
6 110 12 7
